WARNING: for repeatability, setting FPU to use double precision
============================[ Problem Statistics ]=============================
|                                                                             |
|  Number of variables:           100                                         |
|  Number of clauses:             449                                         |
|  Parse time:                   0.00 s                                       |
|  Simplification time:          0.00 s                                       |
|                                                                             |
============================[ Search Statistics ]==============================
| Conflicts |          ORIGINAL         |          LEARNT          | Progress |
|           |    Vars  Clauses Literals |    Limit  Clauses Lit/Cl |          |
===============================================================================
|       100 |     100      449     1347 |      164      100      8 |  0.010 % |
|       250 |     100      449     1347 |      181      163      7 |  0.020 % |
===============================================================================
restarts              : 3
conflicts             : 330            (87232 /sec)
decisions             : 397            (0.00 % random) (104943 /sec)
propagations          : 7393           (1954269 /sec)
conflict literals     : 2158           (17.10 % deleted)
Memory used           : 13.00 MB
CPU time              : 0.003783 s

SATISFIABLE
